data/CVRPLIB/Vrp-Set-XML100/instances/XML100_3314_05.vrp
NAME : XML100_3314_05
COMMENT : Generated by Queiroga, Sadykov, Uchoa, and Vidal (2021)
TYPE : CVRP
DIMENSION : 101
EDGE_WEIGHT_TYPE : EUC_2D
CAPACITY : 12
NODE_COORD_SECTION
1    0    0   
2    422  897 
3    440  844 
4    731  624 
5    282  845 
6    52   859 
7    291  669 
8    205  535 
9    283  967 
10   101  911 
11   390  940 
12   492  399 
13   8    205 
14   223  622 
15   774  191 
16   651  462 
17   747  117 
18   311  400 
19   887  120 
20   731  227 
21   67   844 
22   76   858 
23   42   838 
24   196  791 
25   20   964 
26   430  488 
27   308  688 
28   271  695 
29   608  814 
30   659  154 
31   720  23  
32   235  596 
33   485  896 
34   740  98  
35   276  657 
36   771  408 
37   164  621 
38   85   676 
39   93   695 
40   808  81  
41   272  878 
42   25   841 
43   438  680 
44   404  909 
45   356  682 
46   687  692 
47   54   272 
48   301  369 
49   581  451 
50   430  147 
51   906  230 
52   718  38  
53   491  919 
54   274  402 
55   869  369 
56   300  216 
57   689  54  
58   272  903 
59   491  137 
60   262  980 
61   565  101 
62   641  266 
63   446  857 
64   78   785 
65   325  902 
66   906  198 
67   283  909 
68   491  608 
69   324  610 
70   405  881 
71   13   608 
72   934  772 
73   67   736 
74   332  447 
75   523  207 
76   300  724 
77   69   779 
78   52   853 
79   986  298 
80   474  360 
81   663  111 
82   22   646 
83   49   173 
84   304  604 
85   793  438 
86   439  861 
87   703  13  
88   12   478 
89   738  162 
90   742  112 
91   268  762 
92   662  772 
93   72   796 
94   989  848 
95   319  673 
96   692  1   
97   255  591 
98   45   871 
99   780  880 
100  501  113 
101  531  107 
DEMAND_SECTION
1    0   
2    1   
3    1   
4    1   
5    1   
6    1   
7    1   
8    1   
9    1   
10   1   
11   1   
12   1   
13   1   
14   1   
15   1   
16   1   
17   1   
18   1   
19   1   
20   1   
21   1   
22   1   
23   1   
24   1   
25   1   
26   1   
27   1   
28   1   
29   1   
30   1   
31   1   
32   1   
33   1   
34   1   
35   1   
36   1   
37   1   
38   1   
39   1   
40   1   
41   1   
42   1   
43   1   
44   1   
45   1   
46   1   
47   1   
48   1   
49   1   
50   1   
51   1   
52   1   
53   1   
54   1   
55   1   
56   1   
57   1   
58   1   
59   1   
60   1   
61   1   
62   1   
63   1   
64   1   
65   1   
66   1   
67   1   
68   1   
69   1   
70   1   
71   1   
72   1   
73   1   
74   1   
75   1   
76   1   
77   1   
78   1   
79   1   
80   1   
81   1   
82   1   
83   1   
84   1   
85   1   
86   1   
87   1   
88   1   
89   1   
90   1   
91   1   
92   1   
93   1   
94   1   
95   1   
96   1   
97   1   
98   1   
99   1   
100  1   
101  1   
DEPOT_SECTION
1
-1
EOF
