data/CVRPLIB/Vrp-Set-XML100/solutions/XML100_3314_05.sol
Route #1: 95 86 30 39 18 65 50 78 54 84 35 61
Route #2: 96 83 68 94 26 75 27 6 34 13 31 7
Route #3: 82 46 87 12
Route #4: 55 47 53 17 73 25 11 79 74 58 99 49
Route #5: 81 22 77 5 21 20 92 63 76 72 38 37
Route #6: 67 42 2 62 85 69 1 43 10 64 4 90
Route #7: 36 23 40 57 66 8 59 9 24 97 41 70
Route #8: 100 60 80 29 19 14 88 16 89 33 51 56
Route #9: 48 15 3 45 71 93 98 91 28 52 32 44
Cost 17760
